Version identifier: 12.10.0.0 | 2019-11-26 | 843d4de
CPXPARAM_WorkMem                                 28672
Tried aggregator 2 times.
Aggregator did 75 substitutions.
Reduced MIP has 319 rows, 360 columns, and 1504 nonzeros.
Reduced MIP has 360 binaries, 0 generals, 0 SOSs, and 0 indicators.
Presolve time = 0,00 sec. (1,46 ticks)
Found incumbent of value 300,000000 after 0,01 sec. (2,25 ticks)
Probing time = 0,00 sec. (0,73 ticks)
Tried aggregator 1 time.
Detecting symmetries...
MIP Presolve eliminated 76 rows and 0 columns.
MIP Presolve added 152 rows and 0 columns.
Reduced MIP has 395 rows, 360 columns, and 1580 nonzeros.
Reduced MIP has 360 binaries, 0 generals, 0 SOSs, and 0 indicators.
Presolve time = 0,00 sec. (2,03 ticks)
Probing time = 0,00 sec. (0,71 ticks)
Clique table members: 1099.
MIP emphasis: balance optimality and feasibility.
MIP search method: dynamic search.
Parallel mode: deterministic, using up to 16 threads.
Root relaxation solution time = 0,00 sec. (2,17 ticks)

        Nodes                                         Cuts/
   Node  Left     Objective  IInf  Best Integer    Best Bound    ItCnt     Gap

*     0+    0                          300,0000        0,0000           100,00%
*     0+    0                          178,0000        0,0000           100,00%
*     0+    0                          169,0000        0,0000           100,00%
      0     0       75,0000   267      169,0000       75,0000      157   55,62%
      0     0       76,1066   267      169,0000     Cuts: 120      280   54,97%
      0     0       77,4076   267      169,0000      Cuts: 71      330   54,20%
      0     0       78,0718   267      169,0000      Cuts: 63      371   53,80%
      0     0       78,2939   267      169,0000      Cuts: 10      396   53,67%
      0     0       78,5390   267      169,0000      Cuts: 14      435   53,53%
      0     0       89,8021   267      169,0000     Cuts: 198      681   46,86%
      0     0       90,7269   267      169,0000     Cuts: 198      752   46,32%
*     0+    0                          162,0000       90,7269            44,00%
      0     0       90,8787   267      162,0000     Cuts: 111      787   43,90%
      0     0       90,9294   267      162,0000      Cuts: 73      800   43,87%
      0     0       90,9549   267      162,0000   ZeroHalf: 2      806   43,85%
      0     0       90,9588   267      162,0000   ZeroHalf: 1      809   43,85%
      0     0       90,9675   267      162,0000   ZeroHalf: 3      815   43,85%
      0     2       90,9675   338      162,0000       99,8230      815   38,38%
Elapsed time = 0,30 sec. (195,34 ticks, tree = 0,02 MB, solutions = 4)
   2849  1666      138,4457   148      162,0000      117,7950    75890   27,29%

Performing restart 1

Repeating presolve.
Tried aggregator 2 times.
MIP Presolve eliminated 30 rows and 22 columns.
MIP Presolve added 6 rows and 0 columns.
MIP Presolve modified 45 coefficients.
Aggregator did 6 substitutions.
Reduced MIP has 365 rows, 332 columns, and 1410 nonzeros.
Reduced MIP has 332 binaries, 0 generals, 0 SOSs, and 0 indicators.
Presolve time = 0,00 sec. (1,97 ticks)
Tried aggregator 1 time.
Reduced MIP has 365 rows, 332 columns, and 1410 nonzeros.
Reduced MIP has 332 binaries, 0 generals, 0 SOSs, and 0 indicators.
Presolve time = 0,00 sec. (1,16 ticks)
Represolve time = 0,01 sec. (9,42 ticks)
   4653     0       91,6366   332      162,0000       Cuts: 7   140193   19,54%
   4653     0       92,0223   332      162,0000      Cuts: 10   140249   19,54%
   4653     0       92,7800   332      162,0000      Cuts: 14   140308   19,54%
   4653     0       93,0745   332      162,0000      Cuts: 12   140350   19,54%
   4653     0       94,0003   332      162,0000      Cuts: 16   140430   19,54%
   4653     2       94,0003   331      162,0000      130,3386   140430   19,54%
   4663    10      118,1988   183      162,0000      130,3386   141843   19,54%
   6336  1001      152,6635    84      162,0000      130,3386   198676   19,54%
   8348  2744      137,2884   245      162,0000      130,3386   285675   19,54%
  10311  3961      152,3000    32      162,0000      130,3386   350983   19,54%

Performing restart 2

Repeating presolve.
Tried aggregator 1 time.
Reduced MIP has 365 rows, 332 columns, and 1410 nonzeros.
Reduced MIP has 332 binaries, 0 generals, 0 SOSs, and 0 indicators.
Presolve time = 0,00 sec. (0,87 ticks)
Tried aggregator 1 time.
Reduced MIP has 365 rows, 332 columns, and 1410 nonzeros.
Reduced MIP has 332 binaries, 0 generals, 0 SOSs, and 0 indicators.
Presolve time = 0,00 sec. (1,16 ticks)
Represolve time = 0,02 sec. (14,58 ticks)
  10700     0       95,2769   332      162,0000      Cuts: 11   396050   19,54%
  10700     0       95,8393   332      162,0000      Cuts: 10   396140   19,54%
  10700     0       96,2771   332      162,0000       Cuts: 6   396236   19,54%
  10700     0       96,6653   332      162,0000       Cuts: 8   396323   19,54%
  10700     0       96,8756   332      162,0000       Cuts: 4   396377   19,54%
  10700     0       97,0730   332      162,0000      Fract: 7   396426   19,54%
  10700     0       97,2736   332      162,0000      Cuts: 14   396519   19,54%
  10700     2       97,2736   332      162,0000      130,3386   396519   19,54%
  13030  1419        cutoff            162,0000      130,3386   439000   19,54%
  15600  3189      151,6450   102      162,0000      130,3386   496931   19,54%
* 22057+ 6894                          161,0000      142,8641            11,26%
* 25283  7652      integral     0      160,0000      145,8427   720464    8,85%
  26465  7140      153,9500   119      160,0000      146,9780   770420    8,14%
Elapsed time = 4,48 sec. (3860,38 ticks, tree = 25,64 MB, solutions = 6)

Clique cuts applied:  19
Cover cuts applied:  616
Flow cuts applied:  6
Mixed integer rounding cuts applied:  64
Zero-half cuts applied:  9
Lift and project cuts applied:  2
Gomory fractional cuts applied:  63

Root node processing (before b&c):
  Real time             =    0,30 sec. (194,92 ticks)
Parallel b&c, 16 threads:
  Real time             =    5,51 sec. (4482,19 ticks)
  Sync time (average)   =    1,42 sec.
  Wait time (average)   =    0,01 sec.
                          ------------
Total (root+branch&cut) =    5,80 sec. (4677,11 ticks)
